100
32
1
20
1
4
2
27
8
13
17
16
27
9
10
27
27
6
16
17
4
1
1
1
1
3
4
6
2
1
1
1
18
2
2
3
2
1
3
19
1
2
1
2
4
2
4
17
3
2
3
1
1
1
2
3
2
17
9
17
2
2
2
1
3
2
1
1
20
6
1
1
1
2
3
1
1
1
2
1
1
1
4
18
3
1
1
2
1
1
3
1
3
1
1
17
2
2
2
2
1
2